-355.0 10.0 4.0 10.0 10.0 7.0 2.0 7.0 3.0 5.0 6.0 1.0 8.0 9.0 9.0 0.0 2.0 6.0 4.0 2.0 9.0 10.0 10.0 9.0 2.0 10.0 8.0 1.0 5.0 5.0 0.0 5.0 1.0 5.0 4.0 1.0 5.0 4.0 7.0 10.0 0.0 1.0 7.0 1.0 4.0 3.0 8.0 4.0 3.0 5.0 3.0 3.0 5.0 8.0 6.0 7.0 0.0 6.0 1.0 9.0 10.0 9.0 2.0 4.0 5.0 3.0 4.0 8.0 10.0 
10.0 -363.0 7.0 7.0 7.0 5.0 3.0 1.0 5.0 1.0 7.0 9.0 9.0 2.0 6.0 5.0 9.0 8.0 4.0 5.0 8.0 3.0 5.0 8.0 6.0 4.0 8.0 6.0 3.0 9.0 3.0 7.0 7.0 7.0 10.0 6.0 4.0 4.0 10.0 9.0 1.0 1.0 7.0 1.0 2.0 7.0 9.0 7.0 4.0 3.0 9.0 9.0 6.0 9.0 9.0 1.0 5.0 9.0 2.0 1.0 7.0 3.0 2.0 10.0 2.0 0.0 0.0 0.0 0.0 
4.0 7.0 -326.0 1.0 3.0 3.0 8.0 6.0 2.0 5.0 6.0 2.0 1.0 1.0 9.0 2.0 10.0 3.0 7.0 3.0 4.0 10.0 2.0 2.0 0.0 1.0 9.0 3.0 0.0 9.0 3.0 8.0 6.0 4.0 0.0 0.0 6.0 10.0 6.0 7.0 8.0 6.0 5.0 5.0 2.0 2.0 10.0 9.0 0.0 8.0 2.0 10.0 8.0 0.0 9.0 9.0 4.0 5.0 2.0 2.0 10.0 4.0 6.0 7.0 6.0 1.0 1.0 4.0 8.0 
10.0 7.0 1.0 -373.0 5.0 9.0 1.0 7.0 5.0 7.0 5.0 1.0 9.0 2.0 9.0 6.0 1.0 3.0 4.0 4.0 6.0 3.0 1.0 1.0 10.0 2.0 7.0 8.0 10.0 6.0 0.0 4.0 6.0 5.0 10.0 9.0 7.0 3.0 1.0 5.0 8.0 5.0 4.0 7.0 7.0 10.0 9.0 2.0 0.0 9.0 0.0 10.0 7.0 8.0 4.0 7.0 5.0 7.0 9.0 4.0 10.0 8.0 6.0 8.0 3.0 5.0 0.0 2.0 9.0 
10.0 7.0 3.0 5.0 -367.0 0.0 6.0 7.0 4.0 3.0 8.0 10.0 3.0 5.0 0.0 9.0 9.0 0.0 4.0 1.0 4.0 0.0 6.0 5.0 6.0 10.0 4.0 1.0 8.0 8.0 4.0 2.0 8.0 2.0 8.0 8.0 6.0 10.0 10.0 4.0 5.0 9.0 9.0 8.0 2.0 6.0 3.0 2.0 2.0 5.0 10.0 9.0 4.0 7.0 0.0 4.0 4.0 6.0 4.0 9.0 2.0 9.0 9.0 10.0 10.0 0.0 3.0 6.0 2.0 
7.0 5.0 3.0 9.0 0.0 -349.0 7.0 4.0 7.0 3.0 5.0 9.0 0.0 8.0 3.0 3.0 10.0 8.0 1.0 8.0 6.0 0.0 1.0 7.0 0.0 7.0 9.0 2.0 9.0 3.0 4.0 6.0 6.0 10.0 8.0 2.0 5.0 6.0 4.0 5.0 2.0 3.0 2.0 0.0 6.0 5.0 8.0 1.0 2.0 5.0 9.0 6.0 0.0 8.0 9.0 3.0 8.0 7.0 10.0 2.0 4.0 5.0 9.0 10.0 4.0 9.0 8.0 1.0 3.0 
2.0 3.0 8.0 1.0 6.0 7.0 -350.0 0.0 10.0 4.0 5.0 0.0 4.0 9.0 9.0 0.0 5.0 2.0 0.0 6.0 1.0 10.0 4.0 2.0 4.0 6.0 10.0 5.0 10.0 1.0 3.0 2.0 10.0 3.0 8.0 6.0 5.0 3.0 2.0 6.0 0.0 10.0 4.0 8.0 0.0 1.0 5.0 4.0 8.0 0.0 10.0 6.0 10.0 3.0 1.0 10.0 6.0 3.0 8.0 10.0 7.0 7.0 8.0 7.0 7.0 8.0 7.0 2.0 8.0 
7.0 1.0 6.0 7.0 7.0 4.0 0.0 -305.0 9.0 1.0 7.0 7.0 10.0 3.0 7.0 2.0 2.0 8.0 7.0 2.0 3.0 0.0 8.0 4.0 5.0 1.0 4.0 2.0 6.0 4.0 9.0 3.0 7.0 3.0 7.0 0.0 5.0 6.0 6.0 6.0 2.0 6.0 3.0 2.0 3.0 5.0 1.0 6.0 0.0 0.0 0.0 5.0 8.0 3.0 4.0 0.0 8.0 8.0 8.0 4.0 7.0 5.0 0.0 7.0 0.0 10.0 7.0 3.0 4.0 
3.0 5.0 2.0 5.0 4.0 7.0 10.0 9.0 -357.0 5.0 7.0 2.0 3.0 0.0 10.0 4.0 2.0 6.0 9.0 1.0 4.0 4.0 2.0 9.0 7.0 8.0 6.0 1.0 9.0 10.0 0.0 2.0 10.0 0.0 8.0 1.0 9.0 9.0 10.0 10.0 3.0 9.0 6.0 10.0 1.0 6.0 8.0 6.0 9.0 2.0 6.0 8.0 4.0 8.0 5.0 4.0 10.0 1.0 9.0 2.0 1.0 3.0 3.0 7.0 0.0 0.0 0.0 3.0 10.0 
5.0 1.0 5.0 7.0 3.0 3.0 4.0 1.0 5.0 -329.0 6.0 1.0 5.0 10.0 6.0 2.0 10.0 8.0 2.0 4.0 10.0 2.0 6.0 1.0 7.0 3.0 8.0 4.0 6.0 8.0 5.0 5.0 4.0 4.0 1.0 4.0 9.0 4.0 7.0 0.0 4.0 2.0 7.0 0.0 1.0 8.0 10.0 3.0 9.0 5.0 7.0 6.0 2.0 0.0 1.0 6.0 2.0 3.0 0.0 3.0 7.0 6.0 8.0 6.0 5.0 5.0 8.0 9.0 10.0 
6.0 7.0 6.0 5.0 8.0 5.0 5.0 7.0 7.0 6.0 -318.0 0.0 5.0 9.0 10.0 8.0 9.0 2.0 7.0 4.0 8.0 0.0 8.0 5.0 3.0 1.0 2.0 1.0 1.0 3.0 4.0 5.0 3.0 0.0 5.0 3.0 9.0 6.0 0.0 8.0 7.0 7.0 3.0 0.0 2.0 2.0 1.0 10.0 5.0 1.0 10.0 7.0 2.0 10.0 1.0 6.0 3.0 7.0 0.0 3.0 2.0 7.0 1.0 1.0 9.0 7.0 3.0 10.0 0.0 
1.0 9.0 2.0 1.0 10.0 9.0 0.0 7.0 2.0 1.0 0.0 -329.0 1.0 0.0 10.0 2.0 2.0 10.0 4.0 3.0 3.0 7.0 9.0 2.0 7.0 7.0 9.0 0.0 5.0 4.0 6.0 6.0 5.0 1.0 5.0 9.0 5.0 5.0 2.0 1.0 6.0 1.0 8.0 0.0 2.0 5.0 8.0 10.0 0.0 8.0 5.0 4.0 9.0 10.0 6.0 4.0 8.0 3.0 2.0 0.0 9.0 6.0 4.0 7.0 4.0 10.0 8.0 9.0 1.0 
8.0 9.0 1.0 9.0 3.0 0.0 4.0 10.0 3.0 5.0 5.0 1.0 -292.0 0.0 3.0 0.0 2.0 10.0 9.0 6.0 10.0 2.0 7.0 7.0 10.0 0.0 7.0 3.0 5.0 7.0 0.0 8.0 0.0 6.0 4.0 4.0 9.0 0.0 4.0 0.0 2.0 2.0 3.0 7.0 1.0 1.0 1.0 7.0 0.0 10.0 0.0 3.0 1.0 3.0 3.0 7.0 6.0 9.0 8.0 3.0 4.0 4.0 10.0 1.0 7.0 1.0 3.0 3.0 1.0 
9.0 2.0 1.0 2.0 5.0 8.0 9.0 3.0 0.0 10.0 9.0 0.0 0.0 -353.0 8.0 10.0 2.0 5.0 5.0 3.0 4.0 7.0 2.0 7.0 8.0 3.0 10.0 5.0 3.0 4.0 5.0 3.0 8.0 2.0 10.0 6.0 8.0 8.0 0.0 2.0 9.0 2.0 5.0 0.0 10.0 8.0 1.0 6.0 7.0 5.0 8.0 1.0 2.0 5.0 1.0 4.0 6.0 5.0 10.0 8.0 4.0 10.0 8.0 7.0 2.0 9.0 5.0 3.0 6.0 
9.0 6.0 9.0 9.0 0.0 3.0 9.0 7.0 10.0 6.0 10.0 10.0 3.0 8.0 -339.0 2.0 5.0 4.0 8.0 2.0 5.0 8.0 6.0 5.0 8.0 0.0 7.0 4.0 0.0 1.0 8.0 3.0 3.0 0.0 9.0 6.0 9.0 3.0 0.0 6.0 6.0 0.0 10.0 10.0 0.0 7.0 2.0 3.0 0.0 3.0 1.0 6.0 1.0 6.0 9.0 1.0 4.0 6.0 3.0 4.0 3.0 1.0 3.0 1.0 8.0 4.0 7.0 10.0 9.0 
0.0 5.0 2.0 6.0 9.0 3.0 0.0 2.0 4.0 2.0 8.0 2.0 0.0 10.0 2.0 -294.0 0.0 0.0 6.0 8.0 7.0 7.0 5.0 8.0 4.0 3.0 6.0 2.0 6.0 1.0 10.0 5.0 9.0 0.0 8.0 6.0 6.0 2.0 7.0 7.0 8.0 8.0 6.0 0.0 4.0 1.0 3.0 4.0 0.0 9.0 6.0 9.0 0.0 5.0 7.0 6.0 2.0 1.0 3.0 1.0 4.0 10.0 7.0 2.0 0.0 0.0 6.0 1.0 3.0 
2.0 9.0 10.0 1.0 9.0 10.0 5.0 2.0 2.0 10.0 9.0 2.0 2.0 2.0 5.0 0.0 -328.0 8.0 2.0 4.0 5.0 7.0 4.0 7.0 4.0 7.0 2.0 10.0 10.0 3.0 3.0 2.0 10.0 10.0 5.0 7.0 8.0 4.0 1.0 0.0 3.0 0.0 4.0 8.0 8.0 3.0 0.0 7.0 5.0 2.0 1.0 3.0 4.0 3.0 4.0 10.0 3.0 2.0 1.0 3.0 4.0 8.0 5.0 7.0 9.0 0.0 3.0 5.0 10.0 
6.0 8.0 3.0 3.0 0.0 8.0 2.0 8.0 6.0 8.0 2.0 10.0 10.0 5.0 4.0 0.0 8.0 -372.0 8.0 2.0 2.0 1.0 3.0 3.0 7.0 0.0 1.0 4.0 5.0 1.0 7.0 10.0 6.0 8.0 6.0 6.0 9.0 4.0 4.0 6.0 3.0 0.0 10.0 2.0 6.0 9.0 7.0 10.0 7.0 5.0 9.0 8.0 0.0 1.0 10.0 1.0 7.0 8.0 9.0 4.0 9.0 8.0 10.0 4.0 9.0 10.0 4.0 2.0 6.0 
4.0 4.0 7.0 4.0 4.0 1.0 0.0 7.0 9.0 2.0 7.0 4.0 9.0 5.0 8.0 6.0 2.0 8.0 -338.0 0.0 4.0 8.0 1.0 4.0 0.0 6.0 2.0 10.0 7.0 1.0 5.0 3.0 10.0 7.0 7.0 8.0 7.0 8.0 3.0 4.0 10.0 7.0 6.0 9.0 6.0 2.0 1.0 3.0 10.0 10.0 1.0 3.0 6.0 5.0 1.0 2.0 4.0 1.0 0.0 6.0 0.0 7.0 5.0 2.0 7.0 10.0 3.0 10.0 5.0 
2.0 5.0 3.0 4.0 1.0 8.0 6.0 2.0 1.0 4.0 4.0 3.0 6.0 3.0 2.0 8.0 4.0 2.0 0.0 -305.0 3.0 7.0 0.0 6.0 8.0 4.0 8.0 4.0 4.0 1.0 4.0 0.0 10.0 2.0 6.0 7.0 10.0 1.0 3.0 10.0 1.0 2.0 6.0 7.0 6.0 3.0 5.0 3.0 0.0 4.0 1.0 3.0 9.0 9.0 1.0 9.0 10.0 1.0 2.0 2.0 5.0 7.0 8.0 2.0 2.0 10.0 6.0 5.0 10.0 
9.0 8.0 4.0 6.0 4.0 6.0 1.0 3.0 4.0 10.0 8.0 3.0 10.0 4.0 5.0 7.0 5.0 2.0 4.0 3.0 -348.0 9.0 7.0 1.0 1.0 9.0 3.0 9.0 0.0 8.0 6.0 1.0 6.0 6.0 9.0 1.0 0.0 1.0 3.0 2.0 1.0 4.0 4.0 5.0 2.0 7.0 0.0 3.0 9.0 4.0 2.0 10.0 5.0 7.0 9.0 9.0 3.0 8.0 5.0 3.0 10.0 3.0 0.0 7.0 8.0 7.0 10.0 5.0 10.0 
10.0 3.0 10.0 3.0 0.0 0.0 10.0 0.0 4.0 2.0 0.0 7.0 2.0 7.0 8.0 7.0 7.0 1.0 8.0 7.0 9.0 -375.0 8.0 1.0 2.0 9.0 8.0 1.0 10.0 6.0 7.0 8.0 4.0 7.0 7.0 3.0 2.0 3.0 10.0 5.0 10.0 1.0 1.0 5.0 3.0 8.0 0.0 7.0 9.0 9.0 5.0 3.0 9.0 4.0 2.0 1.0 2.0 9.0 9.0 9.0 9.0 10.0 8.0 6.0 8.0 3.0 5.0 9.0 5.0 
10.0 5.0 2.0 1.0 6.0 1.0 4.0 8.0 2.0 6.0 8.0 9.0 7.0 2.0 6.0 5.0 4.0 3.0 1.0 0.0 7.0 8.0 -330.0 10.0 9.0 6.0 6.0 5.0 5.0 2.0 3.0 8.0 8.0 10.0 2.0 3.0 1.0 2.0 8.0 1.0 8.0 2.0 7.0 8.0 1.0 2.0 9.0 0.0 0.0 3.0 8.0 10.0 3.0 0.0 0.0 0.0 3.0 1.0 9.0 4.0 1.0 7.0 10.0 10.0 10.0 5.0 8.0 2.0 5.0 
9.0 8.0 2.0 1.0 5.0 7.0 2.0 4.0 9.0 1.0 5.0 2.0 7.0 7.0 5.0 8.0 7.0 3.0 4.0 6.0 1.0 1.0 10.0 -357.0 6.0 0.0 10.0 3.0 9.0 3.0 1.0 2.0 7.0 9.0 5.0 5.0 3.0 9.0 10.0 6.0 2.0 3.0 9.0 0.0 4.0 10.0 4.0 6.0 10.0 2.0 5.0 3.0 4.0 9.0 5.0 8.0 5.0 3.0 8.0 7.0 9.0 7.0 7.0 5.0 5.0 5.0 0.0 2.0 8.0 
2.0 6.0 0.0 10.0 6.0 0.0 4.0 5.0 7.0 7.0 3.0 7.0 10.0 8.0 8.0 4.0 4.0 7.0 0.0 8.0 1.0 2.0 9.0 6.0 -372.0 5.0 5.0 9.0 6.0 8.0 5.0 1.0 2.0 1.0 10.0 10.0 0.0 8.0 9.0 8.0 7.0 3.0 6.0 10.0 2.0 1.0 9.0 4.0 5.0 8.0 5.0 4.0 5.0 1.0 6.0 7.0 8.0 8.0 7.0 3.0 1.0 5.0 10.0 4.0 5.0 10.0 9.0 2.0 6.0 
10.0 4.0 1.0 2.0 10.0 7.0 6.0 1.0 8.0 3.0 1.0 7.0 0.0 3.0 0.0 3.0 7.0 0.0 6.0 4.0 9.0 9.0 6.0 0.0 5.0 -280.0 3.0 1.0 8.0 3.0 4.0 7.0 6.0 0.0 2.0 7.0 8.0 10.0 7.0 9.0 0.0 2.0 0.0 4.0 3.0 0.0 4.0 2.0 1.0 2.0 2.0 0.0 4.0 2.0 5.0 7.0 8.0 7.0 8.0 7.0 7.0 2.0 2.0 3.0 1.0 1.0 2.0 2.0 5.0 
8.0 8.0 9.0 7.0 4.0 9.0 10.0 4.0 6.0 8.0 2.0 9.0 7.0 10.0 7.0 6.0 2.0 1.0 2.0 8.0 3.0 8.0 6.0 10.0 5.0 3.0 -383.0 3.0 5.0 6.0 4.0 3.0 3.0 8.0 10.0 6.0 9.0 4.0 3.0 0.0 10.0 0.0 3.0 10.0 6.0 8.0 3.0 0.0 5.0 10.0 0.0 5.0 4.0 0.0 10.0 8.0 5.0 9.0 2.0 8.0 6.0 5.0 8.0 7.0 9.0 7.0 0.0 1.0 8.0 
1.0 6.0 3.0 8.0 1.0 2.0 5.0 2.0 1.0 4.0 1.0 0.0 3.0 5.0 4.0 2.0 10.0 4.0 10.0 4.0 9.0 1.0 5.0 3.0 9.0 1.0 3.0 -280.0 1.0 8.0 3.0 10.0 4.0 0.0 0.0 7.0 9.0 0.0 5.0 2.0 3.0 5.0 9.0 4.0 3.0 2.0 8.0 8.0 7.0 5.0 1.0 7.0 1.0 3.0 6.0 8.0 2.0 4.0 0.0 0.0 6.0 0.0 5.0 0.0 9.0 10.0 1.0 6.0 1.0 
5.0 3.0 0.0 10.0 8.0 9.0 10.0 6.0 9.0 6.0 1.0 5.0 5.0 3.0 0.0 6.0 10.0 5.0 7.0 4.0 0.0 10.0 5.0 9.0 6.0 8.0 5.0 1.0 -362.0 8.0 3.0 4.0 9.0 6.0 2.0 0.0 3.0 2.0 4.0 8.0 9.0 9.0 10.0 4.0 8.0 1.0 0.0 9.0 5.0 3.0 8.0 2.0 7.0 2.0 0.0 0.0 10.0 8.0 9.0 6.0 0.0 8.0 4.0 8.0 3.0 10.0 9.0 3.0 2.0 
5.0 9.0 9.0 6.0 8.0 3.0 1.0 4.0 10.0 8.0 3.0 4.0 7.0 4.0 1.0 1.0 3.0 1.0 1.0 1.0 8.0 6.0 2.0 3.0 8.0 3.0 6.0 8.0 8.0 -337.0 3.0 6.0 8.0 7.0 5.0 9.0 4.0 2.0 2.0 9.0 0.0 8.0 7.0 7.0 6.0 9.0 0.0 5.0 2.0 10.0 0.0 1.0 7.0 10.0 8.0 2.0 5.0 6.0 6.0 1.0 3.0 0.0 7.0 10.0 4.0 1.0 4.0 6.0 6.0 
0.0 3.0 3.0 0.0 4.0 4.0 3.0 9.0 0.0 5.0 4.0 6.0 0.0 5.0 8.0 10.0 3.0 7.0 5.0 4.0 6.0 7.0 3.0 1.0 5.0 4.0 4.0 3.0 3.0 3.0 -319.0 10.0 1.0 4.0 10.0 10.0 5.0 6.0 7.0 2.0 3.0 1.0 7.0 3.0 4.0 8.0 3.0 5.0 9.0 0.0 9.0 8.0 5.0 2.0 9.0 8.0 7.0 2.0 3.0 6.0 4.0 10.0 1.0 5.0 3.0 1.0 8.0 2.0 6.0 
5.0 7.0 8.0 4.0 2.0 6.0 2.0 3.0 2.0 5.0 5.0 6.0 8.0 3.0 3.0 5.0 2.0 10.0 3.0 0.0 1.0 8.0 8.0 2.0 1.0 7.0 3.0 10.0 4.0 6.0 10.0 -348.0 10.0 2.0 8.0 6.0 5.0 2.0 8.0 1.0 0.0 9.0 9.0 0.0 8.0 5.0 10.0 6.0 5.0 8.0 5.0 1.0 7.0 2.0 3.0 8.0 3.0 4.0 0.0 8.0 7.0 9.0 4.0 3.0 6.0 7.0 4.0 9.0 7.0 
1.0 7.0 6.0 6.0 8.0 6.0 10.0 7.0 10.0 4.0 3.0 5.0 0.0 8.0 3.0 9.0 10.0 6.0 10.0 10.0 6.0 4.0 8.0 7.0 2.0 6.0 3.0 4.0 9.0 8.0 1.0 10.0 -381.0 0.0 4.0 1.0 8.0 7.0 9.0 8.0 4.0 9.0 4.0 2.0 5.0 7.0 1.0 4.0 4.0 10.0 6.0 10.0 4.0 0.0 9.0 4.0 0.0 1.0 3.0 4.0 10.0 7.0 7.0 6.0 6.0 0.0 0.0 10.0 10.0 
5.0 7.0 4.0 5.0 2.0 10.0 3.0 3.0 0.0 4.0 0.0 1.0 6.0 2.0 0.0 0.0 10.0 8.0 7.0 2.0 6.0 7.0 10.0 9.0 1.0 0.0 8.0 0.0 6.0 7.0 4.0 2.0 0.0 -324.0 6.0 8.0 5.0 4.0 4.0 5.0 10.0 8.0 10.0 1.0 0.0 0.0 4.0 3.0 4.0 4.0 2.0 10.0 2.0 6.0 5.0 3.0 8.0 10.0 1.0 5.0 4.0 4.0 3.0 6.0 9.0 9.0 10.0 9.0 3.0 
4.0 10.0 0.0 10.0 8.0 8.0 8.0 7.0 8.0 1.0 5.0 5.0 4.0 10.0 9.0 8.0 5.0 6.0 7.0 6.0 9.0 7.0 2.0 5.0 10.0 2.0 10.0 0.0 2.0 5.0 10.0 8.0 4.0 6.0 -353.0 2.0 4.0 5.0 7.0 0.0 9.0 5.0 3.0 1.0 6.0 2.0 6.0 6.0 5.0 3.0 5.0 4.0 8.0 2.0 0.0 3.0 8.0 0.0 8.0 6.0 10.0 0.0 7.0 5.0 5.0 3.0 0.0 2.0 4.0 
1.0 6.0 0.0 9.0 8.0 2.0 6.0 0.0 1.0 4.0 3.0 9.0 4.0 6.0 6.0 6.0 7.0 6.0 8.0 7.0 1.0 3.0 3.0 5.0 10.0 7.0 6.0 7.0 0.0 9.0 10.0 6.0 1.0 8.0 2.0 -344.0 6.0 2.0 7.0 10.0 0.0 8.0 3.0 8.0 9.0 8.0 2.0 8.0 5.0 9.0 2.0 7.0 5.0 0.0 2.0 8.0 8.0 3.0 7.0 1.0 0.0 8.0 5.0 0.0 5.0 6.0 8.0 6.0 1.0 
5.0 4.0 6.0 7.0 6.0 5.0 5.0 5.0 9.0 9.0 9.0 5.0 9.0 8.0 9.0 6.0 8.0 9.0 7.0 10.0 0.0 2.0 1.0 3.0 0.0 8.0 9.0 9.0 3.0 4.0 5.0 5.0 8.0 5.0 4.0 6.0 -401.0 10.0 10.0 8.0 3.0 10.0 8.0 3.0 7.0 1.0 6.0 10.0 10.0 10.0 5.0 10.0 2.0 1.0 6.0 2.0 0.0 5.0 7.0 8.0 4.0 10.0 6.0 3.0 6.0 2.0 10.0 2.0 3.0 
4.0 4.0 10.0 3.0 10.0 6.0 3.0 6.0 9.0 4.0 6.0 5.0 0.0 8.0 3.0 2.0 4.0 4.0 8.0 1.0 1.0 3.0 2.0 9.0 8.0 10.0 4.0 0.0 2.0 2.0 6.0 2.0 7.0 4.0 5.0 2.0 10.0 -336.0 2.0 8.0 5.0 6.0 4.0 9.0 3.0 2.0 7.0 3.0 9.0 9.0 3.0 7.0 2.0 6.0 10.0 1.0 6.0 5.0 3.0 8.0 8.0 10.0 2.0 1.0 4.0 8.0 2.0 0.0 6.0 
7.0 10.0 6.0 1.0 10.0 4.0 2.0 6.0 10.0 7.0 0.0 2.0 4.0 0.0 0.0 7.0 1.0 4.0 3.0 3.0 3.0 10.0 8.0 10.0 9.0 7.0 3.0 5.0 4.0 2.0 7.0 8.0 9.0 4.0 7.0 7.0 10.0 2.0 -335.0 8.0 1.0 5.0 6.0 1.0 8.0 1.0 5.0 9.0 6.0 1.0 0.0 1.0 3.0 5.0 2.0 9.0 5.0 1.0 1.0 10.0 6.0 0.0 10.0 9.0 6.0 4.0 1.0 3.0 6.0 
10.0 9.0 7.0 5.0 4.0 5.0 6.0 6.0 10.0 0.0 8.0 1.0 0.0 2.0 6.0 7.0 0.0 6.0 4.0 10.0 2.0 5.0 1.0 6.0 8.0 9.0 0.0 2.0 8.0 9.0 2.0 1.0 8.0 5.0 0.0 10.0 8.0 8.0 8.0 -345.0 6.0 4.0 1.0 10.0 1.0 2.0 5.0 8.0 5.0 7.0 9.0 3.0 10.0 7.0 0.0 6.0 0.0 9.0 7.0 7.0 1.0 4.0 6.0 2.0 2.0 0.0 6.0 7.0 4.0 
0.0 1.0 8.0 8.0 5.0 2.0 0.0 2.0 3.0 4.0 7.0 6.0 2.0 9.0 6.0 8.0 3.0 3.0 10.0 1.0 1.0 10.0 8.0 2.0 7.0 0.0 10.0 3.0 9.0 0.0 3.0 0.0 4.0 10.0 9.0 0.0 3.0 5.0 1.0 6.0 -297.0 3.0 3.0 2.0 2.0 7.0 5.0 6.0 7.0 4.0 2.0 1.0 0.0 5.0 10.0 7.0 6.0 6.0 3.0 0.0 1.0 6.0 5.0 10.0 5.0 3.0 7.0 1.0 1.0 
1.0 1.0 6.0 5.0 9.0 3.0 10.0 6.0 9.0 2.0 7.0 1.0 2.0 2.0 0.0 8.0 0.0 0.0 7.0 2.0 4.0 1.0 2.0 3.0 3.0 2.0 0.0 5.0 9.0 8.0 1.0 9.0 9.0 8.0 5.0 8.0 10.0 6.0 5.0 4.0 3.0 -290.0 8.0 10.0 5.0 0.0 0.0 2.0 4.0 6.0 6.0 0.0 9.0 1.0 3.0 1.0 0.0 3.0 1.0 2.0 2.0 3.0 9.0 6.0 6.0 2.0 6.0 5.0 4.0 
7.0 7.0 5.0 4.0 9.0 2.0 4.0 3.0 6.0 7.0 3.0 8.0 3.0 5.0 10.0 6.0 4.0 10.0 6.0 6.0 4.0 1.0 7.0 9.0 6.0 0.0 3.0 9.0 10.0 7.0 7.0 9.0 4.0 10.0 3.0 3.0 8.0 4.0 6.0 1.0 3.0 8.0 -373.0 9.0 6.0 5.0 3.0 1.0 4.0 5.0 7.0 4.0 3.0 6.0 0.0 4.0 0.0 6.0 10.0 8.0 10.0 3.0 9.0 6.0 3.0 9.0 10.0 4.0 1.0 
1.0 1.0 5.0 7.0 8.0 0.0 8.0 2.0 10.0 0.0 0.0 0.0 7.0 0.0 10.0 0.0 8.0 2.0 9.0 7.0 5.0 5.0 8.0 0.0 10.0 4.0 10.0 4.0 4.0 7.0 3.0 0.0 2.0 1.0 1.0 8.0 3.0 9.0 1.0 10.0 2.0 10.0 9.0 -309.0 3.0 0.0 9.0 0.0 0.0 3.0 7.0 0.0 7.0 2.0 7.0 4.0 6.0 10.0 9.0 2.0 5.0 6.0 2.0 4.0 0.0 7.0 8.0 5.0 2.0 
4.0 2.0 2.0 7.0 2.0 6.0 0.0 3.0 1.0 1.0 2.0 2.0 1.0 10.0 0.0 4.0 8.0 6.0 6.0 6.0 2.0 3.0 1.0 4.0 2.0 3.0 6.0 3.0 8.0 6.0 4.0 8.0 5.0 0.0 6.0 9.0 7.0 3.0 8.0 1.0 2.0 5.0 6.0 3.0 -298.0 8.0 10.0 7.0 3.0 9.0 7.0 1.0 2.0 4.0 7.0 2.0 5.0 6.0 0.0 0.0 5.0 9.0 6.0 5.0 5.0 9.0 0.0 3.0 7.0 
3.0 7.0 2.0 10.0 6.0 5.0 1.0 5.0 6.0 8.0 2.0 5.0 1.0 8.0 7.0 1.0 3.0 9.0 2.0 3.0 7.0 8.0 2.0 10.0 1.0 0.0 8.0 2.0 1.0 9.0 8.0 5.0 7.0 0.0 2.0 8.0 1.0 2.0 1.0 2.0 7.0 0.0 5.0 0.0 8.0 -295.0 6.0 4.0 6.0 4.0 3.0 10.0 4.0 3.0 7.0 1.0 5.0 8.0 5.0 10.0 2.0 4.0 2.0 2.0 0.0 10.0 0.0 0.0 1.0 
8.0 9.0 10.0 9.0 3.0 8.0 5.0 1.0 8.0 10.0 1.0 8.0 1.0 1.0 2.0 3.0 0.0 7.0 1.0 5.0 0.0 0.0 9.0 4.0 9.0 4.0 3.0 8.0 0.0 0.0 3.0 10.0 1.0 4.0 6.0 2.0 6.0 7.0 5.0 5.0 5.0 0.0 3.0 9.0 10.0 6.0 -312.0 8.0 1.0 0.0 7.0 6.0 0.0 10.0 2.0 0.0 6.0 2.0 3.0 2.0 10.0 5.0 7.0 4.0 2.0 4.0 3.0 4.0 7.0 
4.0 7.0 9.0 2.0 2.0 1.0 4.0 6.0 6.0 3.0 10.0 10.0 7.0 6.0 3.0 4.0 7.0 10.0 3.0 3.0 3.0 7.0 0.0 6.0 4.0 2.0 0.0 8.0 9.0 5.0 5.0 6.0 4.0 3.0 6.0 8.0 10.0 3.0 9.0 8.0 6.0 2.0 1.0 0.0 7.0 4.0 8.0 -366.0 10.0 4.0 0.0 10.0 8.0 10.0 5.0 5.0 7.0 2.0 5.0 0.0 7.0 0.0 9.0 9.0 9.0 7.0 10.0 4.0 4.0 
3.0 4.0 0.0 0.0 2.0 2.0 8.0 0.0 9.0 9.0 5.0 0.0 0.0 7.0 0.0 0.0 5.0 7.0 10.0 0.0 9.0 9.0 0.0 10.0 5.0 1.0 5.0 7.0 5.0 2.0 9.0 5.0 4.0 4.0 5.0 5.0 10.0 9.0 6.0 5.0 7.0 4.0 4.0 0.0 3.0 6.0 1.0 10.0 -316.0 6.0 2.0 9.0 2.0 1.0 6.0 4.0 3.0 3.0 10.0 6.0 8.0 3.0 5.0 8.0 1.0 7.0 4.0 1.0 6.0 
5.0 3.0 8.0 9.0 5.0 5.0 0.0 0.0 2.0 5.0 1.0 8.0 10.0 5.0 3.0 9.0 2.0 5.0 10.0 4.0 4.0 9.0 3.0 2.0 8.0 2.0 10.0 5.0 3.0 10.0 0.0 8.0 10.0 4.0 3.0 9.0 10.0 9.0 1.0 7.0 4.0 6.0 5.0 3.0 9.0 4.0 0.0 4.0 6.0 -377.0 6.0 8.0 7.0 9.0 5.0 8.0 10.0 9.0 4.0 4.0 7.0 8.0 10.0 4.0 3.0 3.0 9.0 5.0 1.0 
3.0 9.0 2.0 0.0 10.0 9.0 10.0 0.0 6.0 7.0 10.0 5.0 0.0 8.0 1.0 6.0 1.0 9.0 1.0 1.0 2.0 5.0 8.0 5.0 5.0 2.0 0.0 1.0 8.0 0.0 9.0 5.0 6.0 2.0 5.0 2.0 5.0 3.0 0.0 9.0 2.0 6.0 7.0 7.0 7.0 3.0 7.0 0.0 2.0 6.0 -315.0 8.0 6.0 10.0 0.0 0.0 3.0 6.0 0.0 8.0 7.0 2.0 5.0 5.0 4.0 6.0 4.0 4.0 10.0 
3.0 9.0 10.0 10.0 9.0 6.0 6.0 5.0 8.0 6.0 7.0 4.0 3.0 1.0 6.0 9.0 3.0 8.0 3.0 3.0 10.0 3.0 10.0 3.0 4.0 0.0 5.0 7.0 2.0 1.0 8.0 1.0 10.0 10.0 4.0 7.0 10.0 7.0 1.0 3.0 1.0 0.0 4.0 0.0 1.0 10.0 6.0 10.0 9.0 8.0 8.0 -369.0 7.0 0.0 0.0 6.0 6.0 9.0 3.0 1.0 8.0 8.0 7.0 4.0 7.0 8.0 9.0 0.0 4.0 
5.0 6.0 8.0 7.0 4.0 0.0 10.0 8.0 4.0 2.0 2.0 9.0 1.0 2.0 1.0 0.0 4.0 0.0 6.0 9.0 5.0 9.0 3.0 4.0 5.0 4.0 4.0 1.0 7.0 7.0 5.0 7.0 4.0 2.0 8.0 5.0 2.0 2.0 3.0 10.0 0.0 9.0 3.0 7.0 2.0 4.0 0.0 8.0 2.0 7.0 6.0 7.0 -312.0 8.0 2.0 8.0 1.0 9.0 3.0 4.0 8.0 4.0 1.0 2.0 2.0 9.0 5.0 0.0 6.0 
8.0 9.0 0.0 8.0 7.0 8.0 3.0 3.0 8.0 0.0 10.0 10.0 3.0 5.0 6.0 5.0 3.0 1.0 5.0 9.0 7.0 4.0 0.0 9.0 1.0 2.0 0.0 3.0 2.0 10.0 2.0 2.0 0.0 6.0 2.0 0.0 1.0 6.0 5.0 7.0 5.0 1.0 6.0 2.0 4.0 3.0 10.0 10.0 1.0 9.0 10.0 0.0 8.0 -336.0 0.0 10.0 9.0 5.0 3.0 9.0 6.0 0.0 8.0 0.0 3.0 9.0 6.0 9.0 10.0 
6.0 9.0 9.0 4.0 0.0 9.0 1.0 4.0 5.0 1.0 1.0 6.0 3.0 1.0 9.0 7.0 4.0 10.0 1.0 1.0 9.0 2.0 0.0 5.0 6.0 5.0 10.0 6.0 0.0 8.0 9.0 3.0 9.0 5.0 0.0 2.0 6.0 10.0 2.0 0.0 10.0 3.0 0.0 7.0 7.0 7.0 2.0 5.0 6.0 5.0 0.0 0.0 2.0 0.0 -338.0 10.0 10.0 6.0 4.0 4.0 6.0 10.0 3.0 7.0 6.0 8.0 2.0 10.0 10.0 
7.0 1.0 9.0 7.0 4.0 3.0 10.0 0.0 4.0 6.0 6.0 4.0 7.0 4.0 1.0 6.0 10.0 1.0 2.0 9.0 9.0 1.0 0.0 8.0 7.0 7.0 8.0 8.0 0.0 2.0 8.0 8.0 4.0 3.0 3.0 8.0 2.0 1.0 9.0 6.0 7.0 1.0 4.0 4.0 2.0 1.0 0.0 5.0 4.0 8.0 0.0 6.0 8.0 10.0 10.0 -342.0 10.0 4.0 3.0 8.0 2.0 5.0 0.0 2.0 4.0 10.0 10.0 3.0 8.0 
0.0 5.0 4.0 5.0 4.0 8.0 6.0 8.0 10.0 2.0 3.0 8.0 6.0 6.0 4.0 2.0 3.0 7.0 4.0 10.0 3.0 2.0 3.0 5.0 8.0 8.0 5.0 2.0 10.0 5.0 7.0 3.0 0.0 8.0 8.0 8.0 0.0 6.0 5.0 0.0 6.0 0.0 0.0 6.0 5.0 5.0 6.0 7.0 3.0 10.0 3.0 6.0 1.0 9.0 10.0 10.0 -338.0 5.0 1.0 7.0 3.0 5.0 9.0 1.0 0.0 1.0 10.0 4.0 4.0 
6.0 9.0 5.0 7.0 6.0 7.0 3.0 8.0 1.0 3.0 7.0 3.0 9.0 5.0 6.0 1.0 2.0 8.0 1.0 1.0 8.0 9.0 1.0 3.0 8.0 7.0 9.0 4.0 8.0 6.0 2.0 4.0 1.0 10.0 0.0 3.0 5.0 5.0 1.0 9.0 6.0 3.0 6.0 10.0 6.0 8.0 2.0 2.0 3.0 9.0 6.0 9.0 9.0 5.0 6.0 4.0 5.0 -366.0 1.0 10.0 5.0 6.0 5.0 2.0 10.0 8.0 9.0 0.0 10.0 
1.0 2.0 2.0 9.0 4.0 10.0 8.0 8.0 9.0 0.0 0.0 2.0 8.0 10.0 3.0 3.0 1.0 9.0 0.0 2.0 5.0 9.0 9.0 8.0 7.0 8.0 2.0 0.0 9.0 6.0 3.0 0.0 3.0 1.0 8.0 7.0 7.0 3.0 1.0 7.0 3.0 1.0 10.0 9.0 0.0 5.0 3.0 5.0 10.0 4.0 0.0 3.0 3.0 3.0 4.0 3.0 1.0 1.0 -315.0 0.0 3.0 6.0 1.0 8.0 6.0 10.0 9.0 7.0 3.0 
9.0 1.0 2.0 4.0 9.0 2.0 10.0 4.0 2.0 3.0 3.0 0.0 3.0 8.0 4.0 1.0 3.0 4.0 6.0 2.0 3.0 9.0 4.0 7.0 3.0 7.0 8.0 0.0 6.0 1.0 6.0 8.0 4.0 5.0 6.0 1.0 8.0 8.0 10.0 7.0 0.0 2.0 8.0 2.0 0.0 10.0 2.0 0.0 6.0 4.0 8.0 1.0 4.0 9.0 4.0 8.0 7.0 10.0 0.0 -324.0 1.0 6.0 4.0 8.0 7.0 4.0 6.0 6.0 6.0 
10.0 7.0 10.0 10.0 2.0 4.0 7.0 7.0 1.0 7.0 2.0 9.0 4.0 4.0 3.0 4.0 4.0 9.0 0.0 5.0 10.0 9.0 1.0 9.0 1.0 7.0 6.0 6.0 0.0 3.0 4.0 7.0 10.0 4.0 10.0 0.0 4.0 8.0 6.0 1.0 1.0 2.0 10.0 5.0 5.0 2.0 10.0 7.0 8.0 7.0 7.0 8.0 8.0 6.0 6.0 2.0 3.0 5.0 3.0 1.0 -379.0 6.0 10.0 10.0 1.0 9.0 2.0 10.0 10.0 
9.0 3.0 4.0 8.0 9.0 5.0 7.0 5.0 3.0 6.0 7.0 6.0 4.0 10.0 1.0 10.0 8.0 8.0 7.0 7.0 3.0 10.0 7.0 7.0 5.0 2.0 5.0 0.0 8.0 0.0 10.0 9.0 7.0 4.0 0.0 8.0 10.0 10.0 0.0 4.0 6.0 3.0 3.0 6.0 9.0 4.0 5.0 0.0 3.0 8.0 2.0 8.0 4.0 0.0 10.0 5.0 5.0 6.0 6.0 6.0 6.0 -365.0 7.0 4.0 0.0 0.0 1.0 3.0 9.0 
2.0 2.0 6.0 6.0 9.0 9.0 8.0 0.0 3.0 8.0 1.0 4.0 10.0 8.0 3.0 7.0 5.0 10.0 5.0 8.0 0.0 8.0 10.0 7.0 10.0 2.0 8.0 5.0 4.0 7.0 1.0 4.0 7.0 3.0 7.0 5.0 6.0 2.0 10.0 6.0 5.0 9.0 9.0 2.0 6.0 2.0 7.0 9.0 5.0 10.0 5.0 7.0 1.0 8.0 3.0 0.0 9.0 5.0 1.0 4.0 10.0 7.0 -383.0 8.0 5.0 6.0 2.0 9.0 3.0 
4.0 10.0 7.0 8.0 10.0 10.0 7.0 7.0 7.0 6.0 1.0 7.0 1.0 7.0 1.0 2.0 7.0 4.0 2.0 2.0 7.0 6.0 10.0 5.0 4.0 3.0 7.0 0.0 8.0 10.0 5.0 3.0 6.0 6.0 5.0 0.0 3.0 1.0 9.0 2.0 10.0 6.0 6.0 4.0 5.0 2.0 4.0 9.0 8.0 4.0 5.0 4.0 2.0 0.0 7.0 2.0 1.0 2.0 8.0 8.0 10.0 4.0 8.0 -362.0 7.0 6.0 10.0 7.0 3.0 
5.0 2.0 6.0 3.0 10.0 4.0 7.0 0.0 0.0 5.0 9.0 4.0 7.0 2.0 8.0 0.0 9.0 9.0 7.0 2.0 8.0 8.0 10.0 5.0 5.0 1.0 9.0 9.0 3.0 4.0 3.0 6.0 6.0 9.0 5.0 5.0 6.0 4.0 6.0 2.0 5.0 6.0 3.0 0.0 5.0 0.0 2.0 9.0 1.0 3.0 4.0 7.0 2.0 3.0 6.0 4.0 0.0 10.0 6.0 7.0 1.0 0.0 5.0 7.0 -334.0 2.0 8.0 8.0 7.0 
3.0 0.0 1.0 5.0 0.0 9.0 8.0 10.0 0.0 5.0 7.0 10.0 1.0 9.0 4.0 0.0 0.0 10.0 10.0 10.0 7.0 3.0 5.0 5.0 10.0 1.0 7.0 10.0 10.0 1.0 1.0 7.0 0.0 9.0 3.0 6.0 2.0 8.0 4.0 0.0 3.0 2.0 9.0 7.0 9.0 10.0 4.0 7.0 7.0 3.0 6.0 8.0 9.0 9.0 8.0 10.0 1.0 8.0 10.0 4.0 9.0 0.0 6.0 6.0 2.0 -373.0 7.0 5.0 3.0 
4.0 0.0 1.0 0.0 3.0 8.0 7.0 7.0 0.0 8.0 3.0 8.0 3.0 5.0 7.0 6.0 3.0 4.0 3.0 6.0 10.0 5.0 8.0 0.0 9.0 2.0 0.0 1.0 9.0 4.0 8.0 4.0 0.0 10.0 0.0 8.0 10.0 2.0 1.0 6.0 7.0 6.0 10.0 8.0 0.0 0.0 3.0 10.0 4.0 9.0 4.0 9.0 5.0 6.0 2.0 10.0 10.0 9.0 9.0 6.0 2.0 1.0 2.0 10.0 8.0 7.0 -345.0 1.0 4.0 
8.0 0.0 4.0 2.0 6.0 1.0 2.0 3.0 3.0 9.0 10.0 9.0 3.0 3.0 10.0 1.0 5.0 2.0 10.0 5.0 5.0 9.0 2.0 2.0 2.0 2.0 1.0 6.0 3.0 6.0 2.0 9.0 10.0 9.0 2.0 6.0 2.0 0.0 3.0 7.0 1.0 5.0 4.0 5.0 3.0 0.0 4.0 4.0 1.0 5.0 4.0 0.0 0.0 9.0 10.0 3.0 4.0 0.0 7.0 6.0 10.0 3.0 9.0 7.0 8.0 5.0 1.0 -306.0 4.0 
10.0 0.0 8.0 9.0 2.0 3.0 8.0 4.0 10.0 10.0 0.0 1.0 1.0 6.0 9.0 3.0 10.0 6.0 5.0 10.0 10.0 5.0 5.0 8.0 6.0 5.0 8.0 1.0 2.0 6.0 6.0 7.0 10.0 3.0 4.0 1.0 3.0 6.0 6.0 4.0 1.0 4.0 1.0 2.0 7.0 1.0 7.0 4.0 6.0 1.0 10.0 4.0 6.0 10.0 10.0 8.0 4.0 10.0 3.0 6.0 10.0 9.0 3.0 3.0 7.0 3.0 4.0 4.0 -369.0 

